644,643
1045,670
885,6
1045,670
994,305
912,-48
744,469
947,364
760,909
620,791
444,443
450,-48
552,805
874,140
1069,124
435,67
254,545
891,406
850,237
782,719
795,369
681,766
892,115
1045,142
653,397
531,406
